NAME: tsp20_3
COMMENT: 20-tsp problem (Padberg/Rinaldi)
TYPE: TSP
DIMENSION: 20
EDGE_WEIGHT_TYPE : EUC_2D
NODE_COORD_SECTION
1 11 14
2 34 11
3 13 9
4 5 31
5 17 23
6 5 23
7 10 18
8 5 32
9 15 37
10 6 28
11 8 38
12 30 40
13 22 9
14 33 3
15 5 3
16 20 10
17 14 22
18 13 12
19 33 29
20 37 37
